p tw 50 174
0 1
0 2
0 25
0 29
1 2
1 21
1 22
1 26
1 25
1 43
1 35
2 13
2 35
2 12
2 37
2 21
2 44
3 4
3 5
3 24
3 25
3 34
3 39
3 22
3 40
4 5
4 14
4 29
4 47
4 9
4 42
5 12
5 20
5 22
5 37
5 38
6 7
6 8
6 13
6 21
6 43
6 44
6 11
6 16
7 8
7 15
7 26
7 28
7 29
8 10
8 32
8 11
8 19
8 38
8 39
9 10
9 11
9 42
9 23
9 44
10 11
10 32
10 17
10 30
10 35
10 18
11 19
11 31
11 32
11 16
11 30
11 36
12 13
12 14
12 20
12 33
12 37
13 14
13 21
13 35
13 33
13 45
14 27
14 28
14 29
14 37
14 47
15 16
15 17
15 26
15 20
15 33
15 23
15 48
16 17
16 36
16 30
16 43
17 36
17 30
17 19
17 31
17 18
17 20
18 19
18 20
18 34
18 35
19 20
19 23
19 24
19 30
19 31
19 34
19 22
20 33
20 38
21 22
21 25
21 38
21 33
22 23
22 24
22 26
22 37
22 34
22 39
23 24
23 44
23 48
24 25
24 48
24 49
25 43
25 29
25 38
26 27
26 28
26 36
26 38
27 28
27 37
27 29
28 29
29 37
30 31
30 35
30 43
30 36
31 32
33 45
34 39
35 45
36 38
36 45
36 47
37 44
38 39
39 41
39 46
39 40
40 41
40 42
41 42
41 46
42 44
42 49
43 44
44 46
44 49
45 47
46 49
46 48
48 49
